(set-info :source |printed by MathSAT|)
(declare-fun dist.next () Int)
(declare-fun call_voiture.flby3 () Bool)
(declare-fun call_voiture.flby2.next () Bool)
(declare-fun meter.next () Bool)
(declare-fun second.next () Bool)
(declare-fun call_voiture.meter () Bool)
(declare-fun call_voiture.flby6.next () Int)
(declare-fun call_excludes2.excludes.next () Bool)
(declare-fun toofast () Bool)
(declare-fun call_voiture.ite2 () Int)
(declare-fun call_voiture.flby () Bool)
(declare-fun param_m () Bool)
(declare-fun call_voiture.move.next () Bool)
(declare-fun _OK_ () Bool)
(declare-fun call_voiture.time () Int)
(declare-fun call_Sofar.Sofar () Bool)
(declare-fun call_voiture.flby5.next () Int)
(declare-fun call_voiture.toofast.next () Bool)
(declare-fun _OK_.next () Bool)
(declare-fun param_m.next () Bool)
(declare-fun call_voiture.dist.next () Int)
(declare-fun call_voiture.stop.next () Bool)
(declare-fun stop () Bool)
(declare-fun call_voiture.second.next () Bool)
(declare-fun call_excludes2.excludes () Bool)
(declare-fun move.next () Bool)
(declare-fun second () Bool)
(declare-fun move () Bool)
(declare-fun call_voiture.second () Bool)
(declare-fun call_voiture.ite3.next () Int)
(declare-fun call_voiture.flby2 () Bool)
(declare-fun call_voiture.flby.next () Bool)
(declare-fun call_voiture.meter.next () Bool)
(declare-fun meter () Bool)
(declare-fun env.next () Bool)
(declare-fun call_voiture.ite.next () Int)
(declare-fun speed () Int)
(declare-fun bump.next () Bool)
(declare-fun call_voiture.flby6 () Int)
(declare-fun dist () Int)
(declare-fun stop.next () Bool)
(declare-fun toofast.next () Bool)
(declare-fun call_Sofar.flby () Bool)
(declare-fun param_s.next () Bool)
(declare-fun speed.next () Int)
(declare-fun time.next () Int)
(declare-fun call_voiture.ite3 () Int)
(declare-fun call_voiture.bump.next () Bool)
(declare-fun call_voiture.bump () Bool)
(declare-fun param_s () Bool)
(declare-fun call_voiture.stop () Bool)
(declare-fun call_voiture.speed () Int)
(declare-fun call_voiture.move () Bool)
(declare-fun call_Sofar.flby.next () Bool)
(declare-fun call_voiture.flby4.next () Int)
(declare-fun call_voiture.time.next () Int)
(declare-fun call_voiture.toofast () Bool)
(declare-fun call_Sofar.Sofar.next () Bool)
(declare-fun bump () Bool)
(declare-fun call_voiture.flby4 () Int)
(declare-fun time () Int)
(declare-fun call_voiture.dist () Int)
(declare-fun call_voiture.speed.next () Int)
(declare-fun call_voiture.flby5 () Int)
(declare-fun call_voiture.flby3.next () Bool)
(declare-fun call_voiture.ite4.next () Int)
(declare-fun env () Bool)
(declare-fun call_voiture.ite2.next () Int)
(define-fun .def_521 () Bool (= call_Sofar.flby.next call_Sofar.Sofar.next))
(define-fun .def_517 () Bool (and param_s.next param_m.next))
(define-fun .def_518 () Bool (not .def_517))
(define-fun .def_519 () Bool (= call_excludes2.excludes.next .def_518))
(define-fun .def_515 () Bool (= call_voiture.meter.next call_voiture.flby.next))
(define-fun .def_513 () Bool (= call_voiture.second.next call_voiture.flby2.next))
(define-fun .def_510 () Bool (= call_voiture.move.next call_voiture.flby3.next))
(define-fun .def_507 () Bool (= call_voiture.ite3.next 0))
(define-fun .def_503 () Bool (not call_voiture.move.next))
(define-fun .def_504 () Bool (or call_voiture.second.next .def_503))
(define-fun .def_506 () Bool (not .def_504))
(define-fun .def_508 () Bool (or .def_506 .def_507))
(define-fun .def_502 () Bool (= call_voiture.ite2.next call_voiture.ite3.next))
(define-fun .def_505 () Bool (or .def_502 .def_504))
(define-fun .def_509 () Bool (and .def_505 .def_508))
(define-fun .def_511 () Bool (and .def_509 .def_510))
(define-fun .def_500 () Bool (= call_voiture.flby6.next call_voiture.time.next))
(define-fun .def_498 () Bool (= call_voiture.flby5.next call_voiture.speed.next))
(define-fun .def_496 () Bool (= call_voiture.flby4.next call_voiture.dist.next))
(define-fun .def_493 () Bool (= call_voiture.dist.next 10))
(define-fun .def_494 () Bool (= call_voiture.bump.next .def_493))
(define-fun .def_490 () Bool (<= 4 call_voiture.time.next))
(define-fun .def_491 () Bool (= call_voiture.stop.next .def_490))
(define-fun .def_487 () Bool (<= 3 call_voiture.speed.next))
(define-fun .def_488 () Bool (= call_voiture.toofast.next .def_487))
(define-fun .def_485 () Bool (= env.next call_Sofar.Sofar.next))
(define-fun .def_482 () Bool (= call_voiture.meter.next meter.next))
(define-fun .def_479 () Bool (= call_voiture.second.next second.next))
(define-fun .def_476 () Bool (= call_voiture.move.next move.next))
(define-fun .def_473 () Bool (= time.next call_voiture.time.next))
(define-fun .def_469 () Bool (= speed.next call_voiture.speed.next))
(define-fun .def_466 () Bool (= dist.next call_voiture.dist.next))
(define-fun .def_462 () Bool (= bump.next call_voiture.bump.next))
(define-fun .def_458 () Bool (= stop.next call_voiture.stop.next))
(define-fun .def_454 () Bool (= toofast.next call_voiture.toofast.next))
(define-fun .def_448 () Bool (<= 4 speed.next))
(define-fun .def_449 () Bool (not .def_448))
(define-fun .def_446 () Bool (not env.next))
(define-fun .def_450 () Bool (or .def_446 .def_449))
(define-fun .def_451 () Bool (= _OK_.next .def_450))
(define-fun .def_455 () Bool (and .def_451 .def_454))
(define-fun .def_459 () Bool (and .def_455 .def_458))
(define-fun .def_463 () Bool (and .def_459 .def_462))
(define-fun .def_467 () Bool (and .def_463 .def_466))
(define-fun .def_470 () Bool (and .def_467 .def_469))
(define-fun .def_474 () Bool (and .def_470 .def_473))
(define-fun .def_477 () Bool (and .def_474 .def_476))
(define-fun .def_480 () Bool (and .def_477 .def_479))
(define-fun .def_483 () Bool (and .def_480 .def_482))
(define-fun .def_486 () Bool (and .def_483 .def_485))
(define-fun .def_489 () Bool (and .def_486 .def_488))
(define-fun .def_492 () Bool (and .def_489 .def_491))
(define-fun .def_495 () Bool (and .def_492 .def_494))
(define-fun .def_497 () Bool (and .def_495 .def_496))
(define-fun .def_499 () Bool (and .def_497 .def_498))
(define-fun .def_501 () Bool (and .def_499 .def_500))
(define-fun .def_512 () Bool (and .def_501 .def_511))
(define-fun .def_514 () Bool (and .def_512 .def_513))
(define-fun .def_516 () Bool (and .def_514 .def_515))
(define-fun .def_520 () Bool (and .def_516 .def_519))
(define-fun .def_522 () Bool (and .def_520 .def_521))
(define-fun .def_363 () Bool (= call_Sofar.Sofar call_Sofar.flby))
(define-fun .def_357 () Bool (and param_s param_m))
(define-fun .def_358 () Bool (not .def_357))
(define-fun .def_360 () Bool (= .def_358 call_excludes2.excludes))
(define-fun .def_353 () Bool (= call_voiture.meter call_voiture.flby))
(define-fun .def_350 () Bool (= call_voiture.second call_voiture.flby2))
(define-fun .def_346 () Bool (= call_voiture.move call_voiture.flby3))
(define-fun .def_342 () Bool (= call_voiture.ite3 0))
(define-fun .def_338 () Bool (not call_voiture.move))
(define-fun .def_339 () Bool (or call_voiture.second .def_338))
(define-fun .def_341 () Bool (not .def_339))
(define-fun .def_343 () Bool (or .def_341 .def_342))
(define-fun .def_337 () Bool (= call_voiture.ite2 call_voiture.ite3))
(define-fun .def_340 () Bool (or .def_337 .def_339))
(define-fun .def_344 () Bool (and .def_340 .def_343))
(define-fun .def_347 () Bool (and .def_344 .def_346))
(define-fun .def_333 () Bool (= call_voiture.time call_voiture.flby6))
(define-fun .def_330 () Bool (= call_voiture.speed call_voiture.flby5))
(define-fun .def_327 () Bool (= call_voiture.dist call_voiture.flby4))
(define-fun .def_323 () Bool (= call_voiture.dist 10))
(define-fun .def_324 () Bool (= call_voiture.bump .def_323))
(define-fun .def_320 () Bool (<= 4 call_voiture.time))
(define-fun .def_321 () Bool (= call_voiture.stop .def_320))
(define-fun .def_317 () Bool (<= 3 call_voiture.speed))
(define-fun .def_318 () Bool (= call_voiture.toofast .def_317))
(define-fun .def_315 () Bool (= env call_Sofar.Sofar))
(define-fun .def_312 () Bool (= meter call_voiture.meter))
(define-fun .def_308 () Bool (= second call_voiture.second))
(define-fun .def_304 () Bool (= move call_voiture.move))
(define-fun .def_300 () Bool (= time call_voiture.time))
(define-fun .def_296 () Bool (= speed call_voiture.speed))
(define-fun .def_293 () Bool (= dist call_voiture.dist))
(define-fun .def_289 () Bool (= bump call_voiture.bump))
(define-fun .def_285 () Bool (= stop call_voiture.stop))
(define-fun .def_281 () Bool (= toofast call_voiture.toofast))
(define-fun .def_275 () Bool (<= 4 speed))
(define-fun .def_276 () Bool (not .def_275))
(define-fun .def_273 () Bool (not env))
(define-fun .def_277 () Bool (or .def_273 .def_276))
(define-fun .def_278 () Bool (= _OK_ .def_277))
(define-fun .def_282 () Bool (and .def_278 .def_281))
(define-fun .def_286 () Bool (and .def_282 .def_285))
(define-fun .def_290 () Bool (and .def_286 .def_289))
(define-fun .def_294 () Bool (and .def_290 .def_293))
(define-fun .def_297 () Bool (and .def_294 .def_296))
(define-fun .def_301 () Bool (and .def_297 .def_300))
(define-fun .def_305 () Bool (and .def_301 .def_304))
(define-fun .def_309 () Bool (and .def_305 .def_308))
(define-fun .def_313 () Bool (and .def_309 .def_312))
(define-fun .def_316 () Bool (and .def_313 .def_315))
(define-fun .def_319 () Bool (and .def_316 .def_318))
(define-fun .def_322 () Bool (and .def_319 .def_321))
(define-fun .def_325 () Bool (and .def_322 .def_324))
(define-fun .def_328 () Bool (and .def_325 .def_327))
(define-fun .def_331 () Bool (and .def_328 .def_330))
(define-fun .def_334 () Bool (and .def_331 .def_333))
(define-fun .def_348 () Bool (and .def_334 .def_347))
(define-fun .def_351 () Bool (and .def_348 .def_350))
(define-fun .def_354 () Bool (and .def_351 .def_353))
(define-fun .def_361 () Bool (and .def_354 .def_360))
(define-fun .def_364 () Bool (and .def_361 .def_363))
(define-fun .def_523 () Bool (and .def_364 .def_522))
(define-fun .def_440 () Bool (or call_Sofar.Sofar call_excludes2.excludes.next))
(define-fun .def_442 () Bool (= .def_440 call_Sofar.flby.next))
(define-fun .def_437 () Bool (= call_voiture.ite4.next call_voiture.flby6.next))
(define-fun .def_434 () Bool (= call_voiture.flby5.next call_voiture.ite3.next))
(define-fun .def_430 () Bool (= call_voiture.ite.next call_voiture.flby4.next))
(define-fun .def_424 () Bool (not call_voiture.bump))
(define-fun .def_422 () Bool (not call_voiture.toofast))
(define-fun .def_420 () Bool (not call_voiture.stop))
(define-fun .def_421 () Bool (and call_voiture.move .def_420))
(define-fun .def_423 () Bool (and .def_421 .def_422))
(define-fun .def_425 () Bool (and .def_423 .def_424))
(define-fun .def_427 () Bool (= .def_425 call_voiture.flby3.next))
(define-fun .def_418 () Bool (= param_s.next call_voiture.flby2.next))
(define-fun .def_411 () Bool (not param_s.next))
(define-fun .def_413 () Bool (and .def_411 param_m.next))
(define-fun .def_415 () Bool (= .def_413 call_voiture.flby.next))
(define-fun .def_406 () Bool (not call_voiture.second.next))
(define-fun .def_403 () Int (* (- 1) call_voiture.ite4.next))
(define-fun .def_404 () Int (+ call_voiture.time .def_403))
(define-fun .def_405 () Bool (= .def_404 (- 1)))
(define-fun .def_407 () Bool (or .def_405 .def_406))
(define-fun .def_400 () Bool (= call_voiture.time call_voiture.ite4.next))
(define-fun .def_402 () Bool (or .def_400 call_voiture.second.next))
(define-fun .def_408 () Bool (and .def_402 .def_407))
(define-fun .def_393 () Int (* (- 1) call_voiture.ite.next))
(define-fun .def_394 () Int (+ call_voiture.dist .def_393))
(define-fun .def_395 () Bool (= .def_394 (- 1)))
(define-fun .def_382 () Bool (and call_voiture.move.next call_voiture.meter.next))
(define-fun .def_387 () Bool (not .def_382))
(define-fun .def_396 () Bool (or .def_387 .def_395))
(define-fun .def_391 () Bool (= call_voiture.dist call_voiture.ite.next))
(define-fun .def_392 () Bool (or .def_382 .def_391))
(define-fun .def_397 () Bool (and .def_392 .def_396))
(define-fun .def_384 () Int (* (- 1) call_voiture.ite2.next))
(define-fun .def_385 () Int (+ call_voiture.speed .def_384))
(define-fun .def_386 () Bool (= .def_385 (- 2)))
(define-fun .def_388 () Bool (or .def_386 .def_387))
(define-fun .def_379 () Bool (= call_voiture.speed call_voiture.ite2.next))
(define-fun .def_383 () Bool (or .def_379 .def_382))
(define-fun .def_389 () Bool (and .def_383 .def_388))
(define-fun .def_398 () Bool (and .def_389 .def_397))
(define-fun .def_409 () Bool (and .def_398 .def_408))
(define-fun .def_416 () Bool (and .def_409 .def_415))
(define-fun .def_419 () Bool (and .def_416 .def_418))
(define-fun .def_428 () Bool (and .def_419 .def_427))
(define-fun .def_431 () Bool (and .def_428 .def_430))
(define-fun .def_435 () Bool (and .def_431 .def_434))
(define-fun .def_438 () Bool (and .def_435 .def_437))
(define-fun .def_443 () Bool (and .def_438 .def_442))
(define-fun .def_524 () Bool (and .def_443 .def_523))
(assert .def_524)
